5 1:7.4 2:0.7 3:0 4:1.9 5:0.076 6:11 7:34 8:0.9978 9:3.51 10:0.56 11:9.4
5 1:7.8 2:0.88 3:0 4:2.6 5:0.098 6:25 7:67 8:0.9968 9:3.2 10:0.68 11:9.8
5 1:7.8 2:0.76 3:0.04 4:2.3 5:0.092 6:15 7:54 8:0.997 9:3.26 10:0.65 11:9.8
6 1:11.2 2:0.28 3:0.56 4:1.9 5:0.075 6:17 7:60 8:0.998 9:3.16 10:0.58 11:9.8
5 1:7.4 2:0.7 3:0 4:1.9 5:0.076 6:11 7:34 8:0.9978 9:3.51 10:0.56 11:9.4
5 1:7.4 2:0.66 3:0 4:1.8 5:0.075 6:13 7:40 8:0.9978 9:3.51 10:0.56 11:9.4
5 1:7.9 2:0.6 3:0.06 4:1.6 5:0.069 6:15 7:59 8:0.9964 9:3.3 10:0.46 11:9.4
7 1:7.3 2:0.65 3:0 4:1.2 5:0.065 6:15 7:21 8:0.9946 9:3.39 10:0.47 11:10
7 1:7.8 2:0.58 3:0.02 4:2 5:0.073 6:9 7:18 8:0.9968 9:3.36 10:0.57 11:9.5
5 1:7.5 2:0.5 3:0.36 4:6.1 5:0.071 6:17 7:102 8:0.9978 9:3.35 10:0.8 11:10.5
5 1:6.7 2:0.58 3:0.08 4:1.8 5:0.097 6:15 7:65 8:0.9959 9:3.28 10:0.54 11:9.2
5 1:7.5 2:0.5 3:0.36 4:6.1 5:0.071 6:17 7:102 8:0.9978 9:3.35 10:0.8 11:10.5
5 1:5.6 2:0.615 3:0 4:1.6 5:0.089 6:16 7:59 8:0.9943 9:3.58 10:0.52 11:9.9
5 1:7.8 2:0.61 3:0.29 4:1.6 5:0.114 6:9 7:29 8:0.9974 9:3.26 10:1.56 11:9.1
5 1:8.9 2:0.62 3:0.18 4:3.8 5:0.176 6:52 7:145 8:0.9986 9:3.16 10:0.88 11:9.2
5 1:8.9 2:0.62 3:0.19 4:3.9 5:0.17 6:51 7:148 8:0.9986 9:3.17 10:0.93 11:9.2
7 1:8.5 2:0.28 3:0.56 4:1.8 5:0.092 6:35 7:103 8:0.9969 9:3.3 10:0.75 11:10.5
5 1:8.1 2:0.56 3:0.28 4:1.7 5:0.368 6:16 7:56 8:0.9968 9:3.11 10:1.28 11:9.3
4 1:7.4 2:0.59 3:0.08 4:4.4 5:0.086 6:6 7:29 8:0.9974 9:3.38 10:0.5 11:9
6 1:7.9 2:0.32 3:0.51 4:1.8 5:0.341 6:17 7:56 8:0.9969 9:3.04 10:1.08 11:9.2
6 1:8.6 2:0.49 3:0.28 4:1.9 5:0.11 6:20 7:136 8:0.9972 9:2.93 10:1.95 11:9.9
5 1:7.7 2:0.49 3:0.26 4:1.9 5:0.062 6:9 7:31 8:0.9966 9:3.39 10:0.64 11:9.6
5 1:9.3 2:0.39 3:0.44 4:2.1 5:0.107 6:34 7:125 8:0.9978 9:3.14 10:1.22 11:9.5
5 1:7 2:0.62 3:0.08 4:1.8 5:0.076 6:8 7:24 8:0.9978 9:3.48 10:0.53 11:9
5 1:7.9 2:0.52 3:0.26 4:1.9 5:0.079 6:42 7:140 8:0.9964 9:3.23 10:0.54 11:9.5
6 1:8.6 2:0.49 3:0.28 4:1.9 5:0.11 6:20 7:136 8:0.9972 9:2.93 10:1.95 11:9.9
5 1:8.6 2:0.49 3:0.29 4:2 5:0.11 6:19 7:133 8:0.9972 9:2.93 10:1.98 11:9.8
5 1:7.7 2:0.49 3:0.26 4:1.9 5:0.062 6:9 7:31 8:0.9966 9:3.39 10:0.64 11:9.6
4 1:5 2:1.02 3:0.04 4:1.4 5:0.045 6:41 7:85 8:0.9938 9:3.75 10:0.48 11:10.5
6 1:4.7 2:0.6 3:0.17 4:2.3 5:0.058 6:17 7:106 8:0.9932 9:3.85 10:0.6 11:12.9
5 1:6.8 2:0.775 3:0 4:3 5:0.102 6:8 7:23 8:0.9965 9:3.45 10:0.56 11:10.7
5 1:7 2:0.5 3:0.25 4:2 5:0.07 6:3 7:22 8:0.9963 9:3.25 10:0.63 11:9.2
5 1:7.6 2:0.9 3:0.06 4:2.5 5:0.079 6:5 7:10 8:0.9967 9:3.39 10:0.56 11:9.8
6 1:8.1 2:0.545 3:0.18 4:1.9 5:0.08 6:13 7:35 8:0.9972 9:3.3 10:0.59 11:9
6 1:8.3 2:0.61 3:0.3 4:2.1 5:0.084 6:11 7:50 8:0.9972 9:3.4 10:0.61 11:10.2
6 1:7.8 2:0.5 3:0.3 4:1.9 5:0.075 6:8 7:22 8:0.9959 9:3.31 10:0.56 11:10.4
6 1:8.1 2:0.545 3:0.18 4:1.9 5:0.08 6:13 7:35 8:0.9972 9:3.3 10:0.59 11:9
5 1:8.1 2:0.575 3:0.22 4:2.1 5:0.077 6:12 7:65 8:0.9967 9:3.29 10:0.51 11:9.2
5 1:7.2 2:0.49 3:0.24 4:2.2 5:0.07 6:5 7:36 8:0.996 9:3.33 10:0.48 11:9.4
5 1:8.1 2:0.575 3:0.22 4:2.1 5:0.077 6:12 7:65 8:0.9967 9:3.29 10:0.51 11:9.2
5 1:7.8 2:0.41 3:0.68 4:1.7 5:0.467 6:18 7:69 8:0.9973 9:3.08 10:1.31 11:9.3
5 1:6.2 2:0.63 3:0.31 4:1.7 5:0.088 6:15 7:64 8:0.9969 9:3.46 10:0.79 11:9.3
6 1:8 2:0.33 3:0.53 4:2.5 5:0.091 6:18 7:80 8:0.9976 9:3.37 10:0.8 11:9.6
6 1:8.6 2:0.45 3:0.31 4:2.6 5:0.086 6:21 7:50 8:0.9982 9:3.37 10:0.91 11:9.9
5 1:11.9 2:0.58 3:0.66 4:2.5 5:0.072 6:6 7:37 8:0.9992 9:3.05 10:0.56 11:10
5 1:12.5 2:0.46 3:0.63 4:2 5:0.071 6:6 7:15 8:0.9988 9:2.99 10:0.87 11:10.2
7 1:12.8 2:0.615 3:0.66 4:5.8 5:0.083 6:7 7:42 8:1.0022 9:3.07 10:0.73 11:10
6 1:10 2:0.42 3:0.5 4:3.4 5:0.107 6:7 7:21 8:0.9979 9:3.26 10:0.93 11:11.8
7 1:12.8 2:0.615 3:0.66 4:5.8 5:0.083 6:7 7:42 8:1.0022 9:3.07 10:0.73 11:10
5 1:10.4 2:0.575 3:0.61 4:2.6 5:0.076 6:11 7:24 8:1 9:3.16 10:0.69 11:9
5 1:10.3 2:0.34 3:0.52 4:2.8 5:0.159 6:15 7:75 8:0.9998 9:3.18 10:0.64 11:9.4
7 1:9.4 2:0.27 3:0.53 4:2.4 5:0.074 6:6 7:18 8:0.9962 9:3.2 10:1.13 11:12
5 1:6.9 2:0.765 3:0.02 4:2.3 5:0.063 6:35 7:63 8:0.9975 9:3.57 10:0.78 11:9.9
6 1:7.9 2:0.24 3:0.4 4:1.6 5:0.056 6:11 7:25 8:0.9967 9:3.32 10:0.87 11:8.7
6 1:9.1 2:0.28 3:0.48 4:1.8 5:0.067 6:26 7:46 8:0.9967 9:3.32 10:1.04 11:10.6
5 1:7.4 2:0.55 3:0.22 4:2.2 5:0.106 6:12 7:72 8:0.9959 9:3.05 10:0.63 11:9.2
6 1:14 2:0.41 3:0.63 4:3.8 5:0.089 6:6 7:47 8:1.0014 9:3.01 10:0.81 11:10.8
7 1:11.5 2:0.54 3:0.71 4:4.4 5:0.124 6:6 7:15 8:0.9984 9:3.01 10:0.83 11:11.8
6 1:11.5 2:0.45 3:0.5 4:3 5:0.078 6:19 7:47 8:1.0003 9:3.26 10:1.11 11:11
7 1:9.4 2:0.27 3:0.53 4:2.4 5:0.074 6:6 7:18 8:0.9962 9:3.2 10:1.13 11:12
6 1:11.4 2:0.625 3:0.66 4:6.2 5:0.088 6:6 7:24 8:0.9988 9:3.11 10:0.99 11:13.3
6 1:8.3 2:0.42 3:0.38 4:2.5 5:0.094 6:24 7:60 8:0.9979 9:3.31 10:0.7 11:10.8
6 1:8.3 2:0.26 3:0.42 4:2 5:0.08 6:11 7:27 8:0.9974 9:3.21 10:0.8 11:9.4
6 1:13.7 2:0.415 3:0.68 4:2.9 5:0.085 6:17 7:43 8:1.0014 9:3.06 10:0.8 11:10
6 1:8.3 2:0.26 3:0.42 4:2 5:0.08 6:11 7:27 8:0.9974 9:3.21 10:0.8 11:9.4
6 1:8.3 2:0.26 3:0.42 4:2 5:0.08 6:11 7:27 8:0.9974 9:3.21 10:0.8 11:9.4
5 1:7.7 2:0.51 3:0.28 4:2.1 5:0.087 6:23 7:54 8:0.998 9:3.42 10:0.74 11:9.2
6 1:7.4 2:0.63 3:0.07 4:2.4 5:0.09 6:11 7:37 8:0.9979 9:3.43 10:0.76 11:9.7
6 1:7.8 2:0.54 3:0.26 4:2 5:0.088 6:23 7:48 8:0.9981 9:3.41 10:0.74 11:9.2
6 1:8.3 2:0.66 3:0.15 4:1.9 5:0.079 6:17 7:42 8:0.9972 9:3.31 10:0.54 11:9.6
6 1:7.8 2:0.46 3:0.26 4:1.9 5:0.088 6:23 7:53 8:0.9981 9:3.43 10:0.74 11:9.2
7 1:9.6 2:0.38 3:0.31 4:2.5 5:0.096 6:16 7:49 8:0.9982 9:3.19 10:0.7 11:10
8 1:5.6 2:0.85 3:0.05 4:1.4 5:0.045 6:12 7:88 8:0.9924 9:3.56 10:0.82 11:12.9
6 1:13.7 2:0.415 3:0.68 4:2.9 5:0.085 6:17 7:43 8:1.0014 9:3.06 10:0.8 11:10
5 1:9.5 2:0.37 3:0.52 4:2 5:0.082 6:6 7:26 8:0.998 9:3.18 10:0.51 11:9.5
5 1:8.4 2:0.665 3:0.61 4:2 5:0.112 6:13 7:95 8:0.997 9:3.16 10:0.54 11:9.1
5 1:9.3 2:0.27 3:0.41 4:2 5:0.091 6:6 7:16 8:0.998 9:3.28 10:0.7 11:9.7
6 1:10.4 2:0.24 3:0.49 4:1.8 5:0.075 6:6 7:20 8:0.9977 9:3.18 10:1.06 11:11
5 1:9.6 2:0.68 3:0.24 4:2.2 5:0.087 6:5 7:28 8:0.9988 9:3.14 10:0.6 11:10.2
6 1:9.4 2:0.685 3:0.11 4:2.7 5:0.077 6:6 7:31 8:0.9984 9:3.19 10:0.7 11:10.1
5 1:10.6 2:0.28 3:0.39 4:15.5 5:0.069 6:6 7:23 8:1.0026 9:3.12 10:0.66 11:9.2
8 1:9.4 2:0.3 3:0.56 4:2.8 5:0.08 6:6 7:17 8:0.9964 9:3.15 10:0.92 11:11.7
5 1:10.6 2:0.36 3:0.59 4:2.2 5:0.152 6:6 7:18 8:0.9986 9:3.04 10:1.05 11:9.4
5 1:10.6 2:0.36 3:0.6 4:2.2 5:0.152 6:7 7:18 8:0.9986 9:3.04 10:1.06 11:9.4
6 1:10.6 2:0.44 3:0.68 4:4.1 5:0.114 6:6 7:24 8:0.997 9:3.06 10:0.66 11:13.4
5 1:10.2 2:0.67 3:0.39 4:1.9 5:0.054 6:6 7:17 8:0.9976 9:3.17 10:0.47 11:10
5 1:10.2 2:0.67 3:0.39 4:1.9 5:0.054 6:6 7:17 8:0.9976 9:3.17 10:0.47 11:10
6 1:10.2 2:0.645 3:0.36 4:1.8 5:0.053 6:5 7:14 8:0.9982 9:3.17 10:0.42 11:10
7 1:11.6 2:0.32 3:0.55 4:2.8 5:0.081 6:35 7:67 8:1.0002 9:3.32 10:0.92 11:10.8
6 1:9.3 2:0.39 3:0.4 4:2.6 5:0.073 6:10 7:26 8:0.9984 9:3.34 10:0.75 11:10.2
6 1:9.3 2:0.775 3:0.27 4:2.8 5:0.078 6:24 7:56 8:0.9984 9:3.31 10:0.67 11:10.6
7 1:9.2 2:0.41 3:0.5 4:2.5 5:0.055 6:12 7:25 8:0.9952 9:3.34 10:0.79 11:13.3
7 1:8.9 2:0.4 3:0.51 4:2.6 5:0.052 6:13 7:27 8:0.995 9:3.32 10:0.9 11:13.4
6 1:8.7 2:0.69 3:0.31 4:3 5:0.086 6:23 7:81 8:1.0002 9:3.48 10:0.74 11:11.6
6 1:6.5 2:0.39 3:0.23 4:8.3 5:0.051 6:28 7:91 8:0.9952 9:3.44 10:0.55 11:12.1
8 1:10.7 2:0.35 3:0.53 4:2.6 5:0.07 6:5 7:16 8:0.9972 9:3.15 10:0.65 11:11
6 1:7.8 2:0.52 3:0.25 4:1.9 5:0.081 6:14 7:38 8:0.9984 9:3.43 10:0.65 11:9
5 1:7.2 2:0.34 3:0.32 4:2.5 5:0.09 6:43 7:113 8:0.9966 9:3.32 10:0.79 11:11.1
8 1:10.7 2:0.35 3:0.53 4:2.6 5:0.07 6:5 7:16 8:0.9972 9:3.15 10:0.65 11:11
6 1:8.7 2:0.69 3:0.31 4:3 5:0.086 6:23 7:81 8:1.0002 9:3.48 10:0.74 11:11.6
6 1:7.8 2:0.52 3:0.25 4:1.9 5:0.081 6:14 7:38 8:0.9984 9:3.43 10:0.65 11:9
7 1:10.4 2:0.44 3:0.73 4:6.55 5:0.074 6:38 7:76 8:0.999 9:3.17 10:0.85 11:12
7 1:10.4 2:0.44 3:0.73 4:6.55 5:0.074 6:38 7:76 8:0.999 9:3.17 10:0.85 11:12
7 1:10.5 2:0.26 3:0.47 4:1.9 5:0.078 6:6 7:24 8:0.9976 9:3.18 10:1.04 11:10.9
7 1:10.5 2:0.24 3:0.42 4:1.8 5:0.077 6:6 7:22 8:0.9976 9:3.21 10:1.05 11:10.8
7 1:10.2 2:0.49 3:0.63 4:2.9 5:0.072 6:10 7:26 8:0.9968 9:3.16 10:0.78 11:12.5
7 1:10.4 2:0.24 3:0.46 4:1.8 5:0.075 6:6 7:21 8:0.9976 9:3.25 10:1.02 11:10.8
6 1:11.2 2:0.67 3:0.55 4:2.3 5:0.084 6:6 7:13 8:1 9:3.17 10:0.71 11:9.5
6 1:10 2:0.59 3:0.31 4:2.2 5:0.09 6:26 7:62 8:0.9994 9:3.18 10:0.63 11:10.2
7 1:13.3 2:0.29 3:0.75 4:2.8 5:0.084 6:23 7:43 8:0.9986 9:3.04 10:0.68 11:11.4
5 1:12.4 2:0.42 3:0.49 4:4.6 5:0.073 6:19 7:43 8:0.9978 9:3.02 10:0.61 11:9.5
6 1:10 2:0.59 3:0.31 4:2.2 5:0.09 6:26 7:62 8:0.9994 9:3.18 10:0.63 11:10.2
6 1:10.7 2:0.4 3:0.48 4:2.1 5:0.125 6:15 7:49 8:0.998 9:3.03 10:0.81 11:9.7
7 1:10.5 2:0.51 3:0.64 4:2.4 5:0.107 6:6 7:15 8:0.9973 9:3.09 10:0.66 11:11.8
7 1:10.5 2:0.51 3:0.64 4:2.4 5:0.107 6:6 7:15 8:0.9973 9:3.09 10:0.66 11:11.8
5 1:8.5 2:0.655 3:0.49 4:6.1 5:0.122 6:34 7:151 8:1.001 9:3.31 10:1.14 11:9.3
6 1:12.5 2:0.6 3:0.49 4:4.3 5:0.1 6:5 7:14 8:1.001 9:3.25 10:0.74 11:11.9
3 1:10.4 2:0.61 3:0.49 4:2.1 5:0.2 6:5 7:16 8:0.9994 9:3.16 10:0.63 11:8.4
6 1:10.9 2:0.21 3:0.49 4:2.8 5:0.088 6:11 7:32 8:0.9972 9:3.22 10:0.68 11:11.7
5 1:7.3 2:0.365 3:0.49 4:2.5 5:0.088 6:39 7:106 8:0.9966 9:3.36 10:0.78 11:11
6 1:9.8 2:0.25 3:0.49 4:2.7 5:0.088 6:15 7:33 8:0.9982 9:3.42 10:0.9 11:10
5 1:7.6 2:0.41 3:0.49 4:2 5:0.088 6:16 7:43 8:0.998 9:3.48 10:0.64 11:9.1
5 1:8.2 2:0.39 3:0.49 4:2.3 5:0.099 6:47 7:133 8:0.9979 9:3.38 10:0.99 11:9.8
5 1:9.3 2:0.4 3:0.49 4:2.5 5:0.085 6:38 7:142 8:0.9978 9:3.22 10:0.55 11:9.4
5 1:9.2 2:0.43 3:0.49 4:2.4 5:0.086 6:23 7:116 8:0.9976 9:3.23 10:0.64 11:9.5
5 1:10.4 2:0.64 3:0.24 4:2.8 5:0.105 6:29 7:53 8:0.9998 9:3.24 10:0.67 11:9.9
5 1:7.3 2:0.365 3:0.49 4:2.5 5:0.088 6:39 7:106 8:0.9966 9:3.36 10:0.78 11:11
6 1:7 2:0.38 3:0.49 4:2.5 5:0.097 6:33 7:85 8:0.9962 9:3.39 10:0.77 11:11.4
6 1:8.2 2:0.42 3:0.49 4:2.6 5:0.084 6:32 7:55 8:0.9988 9:3.34 10:0.75 11:8.7
5 1:9.9 2:0.63 3:0.24 4:2.4 5:0.077 6:6 7:33 8:0.9974 9:3.09 10:0.57 11:9.4
6 1:9.1 2:0.22 3:0.24 4:2.1 5:0.078 6:1 7:28 8:0.999 9:3.41 10:0.87 11:10.3
5 1:11.9 2:0.38 3:0.49 4:2.7 5:0.098 6:12 7:42 8:1.0004 9:3.16 10:0.61 11:10.3
5 1:11.9 2:0.38 3:0.49 4:2.7 5:0.098 6:12 7:42 8:1.0004 9:3.16 10:0.61 11:10.3
6 1:10.3 2:0.27 3:0.24 4:2.1 5:0.072 6:15 7:33 8:0.9956 9:3.22 10:0.66 11:12.8
6 1:10 2:0.48 3:0.24 4:2.7 5:0.102 6:13 7:32 8:1 9:3.28 10:0.56 11:10
6 1:9.1 2:0.22 3:0.24 4:2.1 5:0.078 6:1 7:28 8:0.999 9:3.41 10:0.87 11:10.3
5 1:9.9 2:0.63 3:0.24 4:2.4 5:0.077 6:6 7:33 8:0.9974 9:3.09 10:0.57 11:9.4
6 1:8.1 2:0.825 3:0.24 4:2.1 5:0.084 6:5 7:13 8:0.9972 9:3.37 10:0.77 11:10.7
7 1:12.9 2:0.35 3:0.49 4:5.8 5:0.066 6:5 7:35 8:1.0014 9:3.2 10:0.66 11:12
5 1:11.2 2:0.5 3:0.74 4:5.15 5:0.1 6:5 7:17 8:0.9996 9:3.22 10:0.62 11:11.2
5 1:9.2 2:0.59 3:0.24 4:3.3 5:0.101 6:20 7:47 8:0.9988 9:3.26 10:0.67 11:9.6
6 1:9.5 2:0.46 3:0.49 4:6.3 5:0.064 6:5 7:17 8:0.9988 9:3.21 10:0.73 11:11
5 1:9.3 2:0.715 3:0.24 4:2.1 5:0.07 6:5 7:20 8:0.9966 9:3.12 10:0.59 11:9.9
6 1:11.2 2:0.66 3:0.24 4:2.5 5:0.085 6:16 7:53 8:0.9993 9:3.06 10:0.72 11:11
6 1:14.3 2:0.31 3:0.74 4:1.8 5:0.075 6:6 7:15 8:1.0008 9:2.86 10:0.79 11:8.4
5 1:9.1 2:0.47 3:0.49 4:2.6 5:0.094 6:38 7:106 8:0.9982 9:3.08 10:0.59 11:9.1
6 1:7.5 2:0.55 3:0.24 4:2 5:0.078 6:10 7:28 8:0.9983 9:3.45 10:0.78 11:9.5
6 1:10.6 2:0.31 3:0.49 4:2.5 5:0.067 6:6 7:21 8:0.9987 9:3.26 10:0.86 11:10.7
6 1:12.4 2:0.35 3:0.49 4:2.6 5:0.079 6:27 7:69 8:0.9994 9:3.12 10:0.75 11:10.4
6 1:9 2:0.53 3:0.49 4:1.9 5:0.171 6:6 7:25 8:0.9975 9:3.27 10:0.61 11:9.4
6 1:6.8 2:0.51 3:0.01 4:2.1 5:0.074 6:9 7:25 8:0.9958 9:3.33 10:0.56 11:9.5
6 1:9.4 2:0.43 3:0.24 4:2.8 5:0.092 6:14 7:45 8:0.998 9:3.19 10:0.73 11:10
6 1:9.5 2:0.46 3:0.24 4:2.7 5:0.092 6:14 7:44 8:0.998 9:3.12 10:0.74 11:10
5 1:5 2:1.04 3:0.24 4:1.6 5:0.05 6:32 7:96 8:0.9934 9:3.74 10:0.62 11:11.5
5 1:15.5 2:0.645 3:0.49 4:4.2 5:0.095 6:10 7:23 8:1.00315 9:2.92 10:0.74 11:11.1
5 1:15.5 2:0.645 3:0.49 4:4.2 5:0.095 6:10 7:23 8:1.00315 9:2.92 10:0.74 11:11.1
6 1:10.9 2:0.53 3:0.49 4:4.6 5:0.118 6:10 7:17 8:1.0002 9:3.07 10:0.56 11:11.7
5 1:15.6 2:0.645 3:0.49 4:4.2 5:0.095 6:10 7:23 8:1.00315 9:2.92 10:0.74 11:11.1
6 1:10.9 2:0.53 3:0.49 4:4.6 5:0.118 6:10 7:17 8:1.0002 9:3.07 10:0.56 11:11.7
6 1:13 2:0.47 3:0.49 4:4.3 5:0.085 6:6 7:47 8:1.0021 9:3.3 10:0.68 11:12.7
